
Gurobi 8.0.1 (linux64, C++) logging started Fri Jan 18 16:42:47 2019

Academic license - for non-commercial use only

Gurobi 8.0.1 (linux64, C++) logging started Fri Jan 18 16:44:17 2019

Academic license - for non-commercial use only

Gurobi 8.0.1 (linux64, C++) logging started Fri Jan 18 16:47:42 2019

Academic license - for non-commercial use only
